"Ta1 S2"                                
   1.00000000000000     
     3.3178539136679244    0.0000000000028879   -0.0000000000000000
    -1.6589269568811158    2.8733457752718197    0.0000000000000000
    -0.0000000000000000   -0.0000000000000000   18.3846031568747215
   Ta   S 
     1     2
Direct
  0.0000000000000000 -0.0000000000000000  0.5000000000000000
  0.6666666670000012  0.3333333329999988  0.5849006269299768
  0.6666666670000012  0.3333333329999988  0.4150993730700232
 
  0.00000000E+00  0.00000000E+00  0.00000000E+00
  0.00000000E+00  0.00000000E+00  0.00000000E+00
  0.00000000E+00  0.00000000E+00  0.00000000E+00
