"Mo1 S2"                                
   1.00000000000000     
     3.1545650184556231    0.0000000000000000   -0.0000000000000000
    -1.5772825092278118    2.7319334438864442    0.0000000000000000
    -0.0000000000000000    0.0000000000000000   18.4677485383665463
   Mo   S 
     1     2
Direct
 -0.0000000000000000 -0.0000000000000000  0.5000000000000000
  0.6666666670000012  0.3333333329999988  0.5848359955049360
  0.6666666670000012  0.3333333329999988  0.4151640044950641
 
  0.00000000E+00  0.00000000E+00  0.00000000E+00
  0.00000000E+00  0.00000000E+00  0.00000000E+00
  0.00000000E+00  0.00000000E+00  0.00000000E+00
