Th2 As4                                 
   1.00000000000000     
     4.1352322430101829    0.0000000000000000   -0.0000000000000000
     0.0000000000000000    4.1352322430101829    0.0000000000000000
    -0.0000000000000000    0.0000000000000000    8.5151262646258346
   Th   As
     2     4
Direct
 -0.0000000000000000  0.5000000000608935  0.2823695112271830
  0.5000000000608935  0.0000000000000000  0.7176304887263474
  0.0000000000000000 -0.0000000000000000 -0.0000000000000000
  0.5000000000608935  0.5000000000608935 -0.0000000000000000
 -0.0000000000000000  0.5000000000608935  0.6412085837539337
  0.5000000000608935  0.0000000000000000  0.3587914163157706
 
  0.00000000E+00  0.00000000E+00  0.00000000E+00
  0.00000000E+00  0.00000000E+00  0.00000000E+00
  0.00000000E+00  0.00000000E+00  0.00000000E+00
  0.00000000E+00  0.00000000E+00  0.00000000E+00
  0.00000000E+00  0.00000000E+00  0.00000000E+00
  0.00000000E+00  0.00000000E+00  0.00000000E+00
