
1.0
        5.4122606135         0.0000000000         0.0000000000
       -2.7061309308         4.6871548228         0.0000000000
        0.0000000000         0.0000000000        22.8985004425
   Sn    V   Sc
    6    6    1
Direct
     0.000000000         0.000000000         0.270271987
     0.000000000         0.000000000         0.129728004
     0.666666985         0.333332986         0.000000000
     0.333332986         0.666666985         0.000000000
     0.666666985         0.333332986         0.200000003
     0.333332986         0.666666985         0.200000003
     0.500000000         0.000000000         0.099012002
     0.500000000         0.000000000         0.300987989
     0.000000000         0.500000000         0.099012002
     0.000000000         0.500000000         0.300987989
     0.500000000         0.500000000         0.099012002
     0.500000000         0.500000000         0.300987989
     0.000000000         0.000000000         0.000000000
