"C2"
1.0
        2.4672312737         0.0000000000         0.0000000000
       -1.2336156368         2.1366849600         0.0000000000
        0.0000000000         0.0000000000        15.0000000000
    C
    2
Direct
     0.000000000         0.000000000         0.499999998
     0.666666667         0.333333333         0.500000000
